language Essence 1.3

letting blksize_delta be function(1 --> 7, 2 --> 7, 3 --> 7, 4 --> 7, 5 --> 7, 6 --> 8, 7 --> 8, 8 --> 7)
letting maxcars be function(1 --> 9, 2 --> 9, 3 --> 9, 4 --> 10, 5 --> 9, 6 --> 9, 7 --> 9, 8 --> 9)
letting n_cars be 216
letting n_classes be 98
letting n_options be 8
letting quantity be
        function(1 --> 3, 2 --> 2, 3 --> 2, 4 --> 10, 5 --> 5, 6 --> 2, 7 --> 2, 8 --> 5, 9 --> 2, 10 --> 2, 11 --> 5,
                 12 --> 2, 13 --> 2, 14 --> 2, 15 --> 2, 16 --> 2, 17 --> 2, 18 --> 2, 19 --> 2, 20 --> 4, 21 --> 2,
                 22 --> 2, 23 --> 2, 24 --> 2, 25 --> 2, 26 --> 2, 27 --> 2, 28 --> 2, 29 --> 2, 30 --> 2, 31 --> 2,
                 32 --> 2, 33 --> 2, 34 --> 2, 35 --> 2, 36 --> 2, 37 --> 2, 38 --> 2, 39 --> 2, 40 --> 2, 41 --> 2,
                 42 --> 2, 43 --> 2, 44 --> 2, 45 --> 2, 46 --> 2, 47 --> 2, 48 --> 2, 49 --> 2, 50 --> 2, 51 --> 2,
                 52 --> 2, 53 --> 2, 54 --> 2, 55 --> 2, 56 --> 2, 57 --> 2, 58 --> 2, 59 --> 2, 60 --> 2, 61 --> 2,
                 62 --> 2, 63 --> 2, 64 --> 2, 65 --> 2, 66 --> 2, 67 --> 2, 68 --> 2, 69 --> 2, 70 --> 2, 71 --> 2,
                 72 --> 2, 73 --> 2, 74 --> 2, 75 --> 2, 76 --> 2, 77 --> 2, 78 --> 2, 79 --> 2, 80 --> 2, 81 --> 2,
                 82 --> 2, 83 --> 2, 84 --> 2, 85 --> 2, 86 --> 2, 87 --> 2, 88 --> 2, 89 --> 2, 90 --> 2, 91 --> 2,
                 92 --> 2, 93 --> 2, 94 --> 2, 95 --> 2, 96 --> 2, 97 --> 2, 98 --> 2)
letting usage be
        relation((1, 4), (2, 3), (3, 2), (3, 6), (3, 7), (4, 6), (4, 8), (5, 8), (6, 1), (6, 6), (7, 1), (8, 3), (9, 5),
                 (9, 7), (10, 5), (10, 7), (10, 8), (11, 4), (11, 6), (12, 8), (13, 1), (13, 8), (14, 8), (15, 3),
                 (16, 4), (16, 5), (17, 5), (18, 2), (18, 3), (18, 7), (19, 8), (20, 5), (21, 2), (21, 4), (22, 2),
                 (23, 1), (23, 2), (23, 5), (23, 8), (24, 1), (24, 3), (24, 4), (24, 8), (25, 5), (26, 8), (27, 2),
                 (28, 5), (29, 6), (29, 8), (30, 8), (31, 1), (31, 2), (31, 3), (31, 4), (31, 8), (32, 1), (32, 5),
                 (32, 8), (33, 1), (33, 7), (34, 1), (35, 1), (36, 2), (36, 4), (37, 8), (38, 1), (38, 2), (39, 1),
                 (39, 2), (40, 2), (41, 8), (42, 2), (43, 2), (43, 3), (44, 4), (45, 3), (46, 5), (46, 7), (47, 5),
                 (48, 4), (49, 3), (49, 7), (50, 1), (50, 3), (51, 1), (51, 6), (52, 2), (52, 8), (53, 4), (53, 5),
                 (53, 7), (54, 1), (54, 2), (54, 5), (54, 8), (55, 5), (55, 7), (55, 8), (56, 4), (56, 5), (56, 6),
                 (56, 8), (57, 3), (58, 3), (58, 4), (58, 5), (58, 6), (59, 1), (60, 3), (60, 7), (61, 5), (61, 7),
                 (62, 1), (62, 4), (62, 6), (63, 8), (64, 8), (65, 2), (65, 5), (65, 6), (65, 8), (66, 2), (66, 6),
                 (67, 1), (67, 2), (67, 3), (67, 8), (68, 3), (69, 8), (70, 8), (71, 4), (72, 4), (72, 5), (72, 8),
                 (73, 8), (74, 1), (74, 3), (74, 7), (74, 8), (75, 8), (76, 5), (77, 7), (77, 8), (78, 3), (78, 8),
                 (79, 1), (79, 2), (79, 4), (79, 6), (79, 8), (80, 3), (80, 7), (80, 8), (81, 5), (81, 8), (82, 2),
                 (82, 4), (82, 6), (82, 8), (83, 2), (83, 8), (84, 5), (84, 7), (84, 8), (85, 1), (85, 5), (85, 6),
                 (85, 8), (86, 8), (87, 1), (87, 2), (87, 7), (87, 8), (88, 3), (88, 7), (88, 8), (89, 1), (89, 3),
                 (89, 8), (90, 8), (91, 8), (92, 2), (92, 4), (92, 8), (93, 1), (93, 3), (93, 5), (93, 8), (94, 1),
                 (94, 5), (94, 8), (95, 2), (95, 3), (95, 8), (96, 8), (97, 1), (97, 8), (98, 1), (98, 2), (98, 3),
                 (98, 4), (98, 5), (98, 6), (98, 7), (98, 8))
$ Visualisation for usage
$  1  4
$  2  3
$  3  2
$  3  6
$  3  7
$  4  6
$  4  8
$  5  8
$  6  1
$  6  6
$  7  1
$  8  3
$  9  5
$  9  7
$ 10  5
$ 10  7
$ 10  8
$ 11  4
$ 11  6
$ 12  8
$ 13  1
$ 13  8
$ 14  8
$ 15  3
$ 16  4
$ 16  5
$ 17  5
$ 18  2
$ 18  3
$ 18  7
$ 19  8
$ 20  5
$ 21  2
$ 21  4
$ 22  2
$ 23  1
$ 23  2
$ 23  5
$ 23  8
$ 24  1
$ 24  3
$ 24  4
$ 24  8
$ 25  5
$ 26  8
$ 27  2
$ 28  5
$ 29  6
$ 29  8
$ 30  8
$ 31  1
$ 31  2
$ 31  3
$ 31  4
$ 31  8
$ 32  1
$ 32  5
$ 32  8
$ 33  1
$ 33  7
$ 34  1
$ 35  1
$ 36  2
$ 36  4
$ 37  8
$ 38  1
$ 38  2
$ 39  1
$ 39  2
$ 40  2
$ 41  8
$ 42  2
$ 43  2
$ 43  3
$ 44  4
$ 45  3
$ 46  5
$ 46  7
$ 47  5
$ 48  4
$ 49  3
$ 49  7
$ 50  1
$ 50  3
$ 51  1
$ 51  6
$ 52  2
$ 52  8
$ 53  4
$ 53  5
$ 53  7
$ 54  1
$ 54  2
$ 54  5
$ 54  8
$ 55  5
$ 55  7
$ 55  8
$ 56  4
$ 56  5
$ 56  6
$ 56  8
$ 57  3
$ 58  3
$ 58  4
$ 58  5
$ 58  6
$ 59  1
$ 60  3
$ 60  7
$ 61  5
$ 61  7
$ 62  1
$ 62  4
$ 62  6
$ 63  8
$ 64  8
$ 65  2
$ 65  5
$ 65  6
$ 65  8
$ 66  2
$ 66  6
$ 67  1
$ 67  2
$ 67  3
$ 67  8
$ 68  3
$ 69  8
$ 70  8
$ 71  4
$ 72  4
$ 72  5
$ 72  8
$ 73  8
$ 74  1
$ 74  3
$ 74  7
$ 74  8
$ 75  8
$ 76  5
$ 77  7
$ 77  8
$ 78  3
$ 78  8
$ 79  1
$ 79  2
$ 79  4
$ 79  6
$ 79  8
$ 80  3
$ 80  7
$ 80  8
$ 81  5
$ 81  8
$ 82  2
$ 82  4
$ 82  6
$ 82  8
$ 83  2
$ 83  8
$ 84  5
$ 84  7
$ 84  8
$ 85  1
$ 85  5
$ 85  6
$ 85  8
$ 86  8
$ 87  1
$ 87  2
$ 87  7
$ 87  8
$ 88  3
$ 88  7
$ 88  8
$ 89  1
$ 89  3
$ 89  8
$ 90  8
$ 91  8
$ 92  2
$ 92  4
$ 92  8
$ 93  1
$ 93  3
$ 93  5
$ 93  8
$ 94  1
$ 94  5
$ 94  8
$ 95  2
$ 95  3
$ 95  8
$ 96  8
$ 97  1
$ 97  8
$ 98  1
$ 98  2
$ 98  3
$ 98  4
$ 98  5
$ 98  6
$ 98  7
$ 98  8

